NAME: random-94-32227
TYPE: TSP
COMMENT: size=94 seed=32227
DIMENSION: 190
EDGE_WEIGHT_TYPE: EUC_2D
NODE_COORD_SECTION
+0 189 890
-0 189 890
+1 767 512
-1 636 887
+2 44 9
-2 607 322
+3 671 776
-3 915 891
+4 266 27
-4 348 286
+5 43 959
-5 883 344
+6 77 84
-6 412 875
+7 550 786
-7 627 241
+8 898 346
-8 383 725
+9 197 551
-9 547 236
+10 742 936
-10 228 406
+11 683 841
-11 71 40
+12 202 631
-12 680 166
+13 402 515
-13 670 428
+14 482 76
-14 563 684
+15 256 609
-15 837 641
+16 815 38
-16 460 788
+17 435 519
-17 654 474
+18 82 448
-18 771 129
+19 673 414
-19 448 676
+20 439 458
-20 166 385
+21 652 929
-21 113 789
+22 154 154
-22 471 384
+23 771 187
-23 1 321
+24 372 506
-24 113 946
+25 922 506
-25 732 294
+26 508 232
-26 406 64
+27 457 800
-27 407 32
+28 931 590
-28 506 654
+29 478 741
-29 32 183
+30 16 136
-30 726 719
+31 363 611
-31 76 353
+32 999 623
-32 339 444
+33 546 225
-33 958 102
+34 830 786
-34 136 777
+35 931 154
-35 992 161
+36 696 399
-36 490 145
+37 170 641
-37 406 715
+38 98 674
-38 722 108
+39 902 931
-39 84 242
+40 332 471
-40 289 940
+41 668 812
-41 572 916
+42 584 937
-42 433 411
+43 811 657
-43 958 799
+44 565 55
-44 435 538
+45 587 587
-45 101 178
+46 69 803
-46 645 618
+47 601 266
-47 699 401
+48 689 196
-48 249 506
+49 161 520
-49 907 185
+50 47 355
-50 322 113
+51 933 24
-51 564 525
+52 412 845
-52 36 66
+53 168 171
-53 863 136
+54 228 36
-54 506 970
+55 607 90
-55 508 805
+56 932 874
-56 899 77
+57 355 947
-57 56 866
+58 75 573
-58 474 155
+59 974 74
-59 586 68
+60 384 648
-60 736 97
+61 352 2
-61 346 866
+62 777 776
-62 295 710
+63 882 286
-63 735 456
+64 963 933
-64 279 293
+65 751 143
-65 634 662
+66 96 638
-66 781 13
+67 335 805
-67 764 383
+68 139 387
-68 46 528
+69 804 941
-69 592 879
+70 802 16
-70 651 77
+71 753 688
-71 937 745
+72 710 773
-72 778 582
+73 345 952
-73 853 864
+74 181 709
-74 25 341
+75 292 393
-75 338 871
+76 554 922
-76 185 64
+77 841 598
-77 160 306
+78 489 749
-78 678 597
+79 16 527
-79 226 244
+80 690 884
-80 886 756
+81 873 623
-81 633 128
+82 725 528
-82 76 814
+83 824 561
-83 874 194
+84 658 186
-84 700 568
+85 57 639
-85 171 382
+86 773 464
-86 638 396
+87 731 353
-87 749 367
+88 608 221
-88 934 524
+89 74 35
-89 804 749
+90 20 947
-90 267 474
+91 913 896
-91 545 549
+92 368 675
-92 569 892
+93 992 378
-93 906 239
+94 445 173
-94 505 389
PRECEDENCE_SECTION
+0 -0
+1 -1
+2 -2
+3 -3
+4 -4
+5 -5
+6 -6
+7 -7
+8 -8
+9 -9
+10 -10
+11 -11
+12 -12
+13 -13
+14 -14
+15 -15
+16 -16
+17 -17
+18 -18
+19 -19
+20 -20
+21 -21
+22 -22
+23 -23
+24 -24
+25 -25
+26 -26
+27 -27
+28 -28
+29 -29
+30 -30
+31 -31
+32 -32
+33 -33
+34 -34
+35 -35
+36 -36
+37 -37
+38 -38
+39 -39
+40 -40
+41 -41
+42 -42
+43 -43
+44 -44
+45 -45
+46 -46
+47 -47
+48 -48
+49 -49
+50 -50
+51 -51
+52 -52
+53 -53
+54 -54
+55 -55
+56 -56
+57 -57
+58 -58
+59 -59
+60 -60
+61 -61
+62 -62
+63 -63
+64 -64
+65 -65
+66 -66
+67 -67
+68 -68
+69 -69
+70 -70
+71 -71
+72 -72
+73 -73
+74 -74
+75 -75
+76 -76
+77 -77
+78 -78
+79 -79
+80 -80
+81 -81
+82 -82
+83 -83
+84 -84
+85 -85
+86 -86
+87 -87
+88 -88
+89 -89
+90 -90
+91 -91
+92 -92
+93 -93
+94 -94
EOF
